3 
4  22 45 
5  01 15 30 44 59 
6  14 29 44 59 
7  14 29 44 59 
8  14 29 44 59 
9  14 29 44 59 
10  15 30 45 
11  00 15 30 45 
12  00 15 30 45 
13  00 15 28 43 
14  01 16 31 46 
15  03 18 32 47 
16  02 17 32 47 
17  02 17 32 46 
18  01 16 28 43 58 
19  13 26 40 55 
20  10 25 40 55 
21  10 25 40 55 
22  10 25 42 54 
23  07 20 
0 
